8387
0 0 1 0 0 1 1 1 0 1 0 0 0 1 1 0 0 0 1 0 
18 18 18 18 18 18 18 2 2 2 2 2 2 2 2 2 2 2 2 6 6 6 2 6 6 2 6 6 6 6 6 14 14 6 6 6 6 6 6 7 7 7 7 7 7 7 7 7 14 7 7 6 7 7 7 7 7 7 7 7 7 9 9 7 9 7 9 7 7 9 13 7 13 13 18 13 13 13 13 13 13 13 13 13 5 13 5 5 5 5 5 18 18 18 18 18 18 18 18 18 

Total Run Time: 132905 ms.
